min: sigma_A + sigma_B + sigma_D + sigma_I + sigma_L;

UA = up_17 + 
UB = 
UC = 
UD = 
UE = 
UF = 
UG = 
UH = 
UI = 
UJ = 
UK = 
UL = 
UM = 

delta_bis=2;

/* Monotonicity constraints of Peformance criteria */
up_17 > up_16 + delta_bis;
up_16 > up_14 + delta_bis;
up_14 > up_13 + delta_bis;
up_13 > up_12 + delta_bis;
up_12 > up_11 + delta_bis;
up_11 > up_10 + delta_bis;


up_17
up_16
up_14
up_13
up_12
up_11
up_10

uc_19
uc_18
uc_17
uc_12
uc_11
uc_9
uc_8
uc_6
uc_5
uc_4

vA
vB
vD
vI
vL
